Route #1: 0 74 80 115 31 57 117 105 129 0
Route #2: 0 127 71 21 88 62 86 133 82 19 0
Route #3: 0 87 130 72 64 43 6 11 125 128 0
Route #4: 0 131 101 89 25 73 18 113 104 69 0
Route #5: 0 124 45 94 93 53 77 121 30 81 13 90 36 49 1 0
Route #6: 0 42 65 98 75 28 20 67 126 55 22 27 4 70 44 107 84 8 68 15 63 7 23 97 0
Route #7: 0 29 119 61 108 66 99 46 106 85 3 0
Route #8: 0 38 50 26 123 54 24 103 33 0
Route #9: 0 35 110 32 37 102 111 111 79 48 92 0
Route #10: 0 132 109 78 76 122 114 60 95 0
Route #11: 0 52 116 34 47 16 14 58 91 0
Route #12: 0 51 9 2 39 96 5 59 41 0
Route #13: 0 83 17 12 120 112 100 40 0
Route #14: 0 118 10 56 0
Cost 114808:
